\* SlaveProblem *\
Maximize
OBJ: 0.16666667 q1 + 0.41666667 q2 + 0.5 q3 + 0.5 q4 + 0.83333333 q5
Subject To
_C1: 20 q1 + 45 q2 + 50 q3 + 55 q4 + 75 q5 <= 110
Bounds
0 <= q1
0 <= q2
0 <= q3
0 <= q4
0 <= q5
Generals
q1
q2
q3
q4
q5
End
